c 
c G(k,n,p) graph
c graph gen seed     : 2173
c number of vertices : 30
c max number of edges: 500
c number of classes  : 2
c edge density       : 0.200000
c edge probability   : 0.400000
c data structure     : sparse
c
c           Graph Stats
c number of vertices  : 30
c nonisolated vertices: 30
c number of edges     : 97
c edge density        : 0.222989
c max degree          : 11
c avg degree          : 6.47
c min degree          : 3
p col 30 97
e 1 27
e 1 24
e 1 14
e 1 7
e 1 2
e 2 28
e 2 23
e 2 20
e 2 17
e 2 9
e 2 8
e 2 5
e 3 30
e 3 29
e 3 28
e 3 23
e 3 20
e 3 17
e 3 16
e 3 10
e 3 9
e 3 8
e 3 5
e 4 21
e 4 19
e 4 18
e 4 15
e 4 14
e 4 7
e 5 24
e 5 19
e 5 18
e 5 13
e 5 11
e 5 7
e 6 30
e 6 28
e 6 26
e 6 25
e 6 23
e 6 22
e 6 16
e 6 10
e 6 9
e 7 22
e 7 20
e 7 16
e 7 10
e 8 18
e 9 27
e 9 14
e 10 27
e 10 18
e 10 14
e 10 13
e 11 29
e 11 26
e 11 25
e 11 22
e 11 20
e 11 16
e 12 27
e 12 21
e 12 15
e 13 30
e 13 25
e 13 22
e 13 20
e 13 16
e 14 29
e 14 28
e 14 26
e 14 23
e 14 22
e 14 20
e 14 17
e 15 26
e 15 23
e 15 22
e 15 17
e 17 24
e 17 21
e 18 30
e 18 26
e 18 22
e 19 29
e 19 26
e 19 25
e 20 27
e 22 27
e 23 27
e 23 24
e 24 30
e 24 29
e 24 25
e 25 27
e 27 30
